(set-info :smt-lib-version 2.6)
(set-logic UF)
(set-info :source |Benchmarks from the paper: "Extending Sledgehammer with SMT Solvers" by Jasmin Blanchette, Sascha Bohme, and Lawrence C. Paulson, CADE 2011.  Translated to SMT2 by Andrew Reynolds and Morgan Deters.|)
(set-info :category "industrial")
(set-info :status sat)
(declare-sort S1 0)
(declare-sort S2 0)
(declare-sort S3 0)
(declare-sort S4 0)
(declare-fun f1 () S1)
(declare-fun f2 () S1)
(declare-fun f3 (S2 S2) S1)
(declare-fun f4 (S3 S2) S2)
(declare-fun f5 (S4 S2) S3)
(declare-fun f6 () S4)
(declare-fun f7 () S4)
(declare-fun f8 () S4)
(declare-fun f9 () S3)
(declare-fun f10 () S3)
(declare-fun f11 () S3)
(declare-fun f12 () S2)
(declare-fun f13 () S2)
(declare-fun f14 () S2)
(declare-fun f15 () S2)
(declare-fun f16 (S2) S1)
(declare-fun f17 (S2) S1)
(declare-fun f18 () S2)
(assert (not (= f1 f2)))
(assert (not (= (f3 (f4 (f5 f6 (f4 (f5 f7 (f4 (f5 f8 (f4 f9 (f4 f10 (f4 f10 (f4 f11 f12))))) f13)) f14)) f14) f15) f1)))
(assert (not (= (f3 f15 (f4 (f5 f7 (f4 (f5 f8 (f4 f9 (f4 f10 (f4 f10 (f4 f11 f12))))) f13)) f14)) f1)))
(assert (not (= (f3 f15 (f4 (f5 f7 (f4 (f5 f8 (f4 f9 (f4 f10 (f4 f10 (f4 f11 f12))))) f13)) f14)) f1)))
(assert (= (f16 (f4 (f5 f7 (f4 (f5 f8 (f4 f9 (f4 f10 (f4 f10 (f4 f11 f12))))) f13)) f14)) f1))
(assert (= (f17 (f4 (f5 f8 (f4 (f5 f7 (f4 (f5 f8 (f4 f9 (f4 f10 (f4 f10 (f4 f11 f12))))) f13)) f14)) f15)) f1))
(assert (= (f3 f18 (f4 (f5 f7 (f4 (f5 f8 (f4 f9 (f4 f10 (f4 f10 (f4 f11 f12))))) f13)) f14)) f1))
(assert (forall ((?v0 S2)) (= (f4 (f5 f7 f14) (f4 f9 ?v0)) (f4 f9 (f4 (f5 f7 (f4 f11 f12)) ?v0)))))
(assert (forall ((?v0 S2)) (= (f4 (f5 f7 (f4 f9 ?v0)) f14) (f4 f9 (f4 (f5 f7 ?v0) (f4 f11 f12))))))
(assert (forall ((?v0 S2)) (= (= (f3 f14 (f4 f9 ?v0)) f1) (= (f3 (f4 f11 f12) ?v0) f1))))
(assert (forall ((?v0 S2)) (= (= (f3 (f4 f9 ?v0) f14) f1) (= (f3 ?v0 (f4 f11 f12)) f1))))
(assert (= (f4 (f5 f7 f14) f14) (f4 f9 (f4 f10 (f4 f11 f12)))))
(assert (= (f4 (f5 f7 f14) f14) (f4 f9 (f4 f10 (f4 f11 f12)))))
(assert (forall ((?v0 S2)) (= (f4 (f5 f8 ?v0) (f4 f9 (f4 f10 (f4 f11 f12)))) (f4 (f5 f7 ?v0) ?v0))))
(assert (forall ((?v0 S2)) (= (f4 (f5 f8 ?v0) (f4 f9 (f4 f10 (f4 f11 f12)))) (f4 (f5 f7 ?v0) ?v0))))
(assert (forall ((?v0 S2)) (= (f4 (f5 f8 (f4 f9 (f4 f10 (f4 f11 f12)))) ?v0) (f4 (f5 f7 ?v0) ?v0))))
(assert (forall ((?v0 S2)) (= (f4 (f5 f8 (f4 f9 (f4 f10 (f4 f11 f12)))) ?v0) (f4 (f5 f7 ?v0) ?v0))))
(assert (forall ((?v0 S2)) (= (f4 (f5 f8 (f4 (f5 f7 f14) f14)) (f4 f9 ?v0)) (f4 f9 (f4 f10 ?v0)))))
(assert (forall ((?v0 S2)) (= (= (f4 (f5 f7 ?v0) ?v0) f18) (= ?v0 f18))))
(assert (= f12 f18))
(assert (not (= f18 f14)))
(assert (forall ((?v0 S2)) (= (f4 (f5 f7 ?v0) f18) ?v0)))
(assert (forall ((?v0 S2)) (= (f4 (f5 f7 f18) ?v0) ?v0)))
(assert (forall ((?v0 S2)) (= (= (f3 (f4 (f5 f7 ?v0) ?v0) f18) f1) (= (f3 ?v0 f18) f1))))
(assert (= (f4 f9 f12) f18))
(assert (= (f4 f9 f12) f18))
(assert (forall ((?v0 S2)) (= (= (f3 (f4 f11 ?v0) f18) f1) (= (f3 ?v0 f18) f1))))
(assert (= (= (f3 f12 f18) f1) false))
(assert (forall ((?v0 S2)) (= (= (f3 (f4 f10 ?v0) f18) f1) (= (f3 ?v0 f18) f1))))
(assert (= f18 (f4 f9 f12)))
(assert (= (f3 f18 f14) f1))
(assert (forall ((?v0 S2) (?v1 S2) (?v2 S2)) (let ((?v_0 (f5 f8 ?v2))) (=> (= (f3 ?v0 ?v1) f1) (=> (= (f3 f18 ?v2) f1) (= (f3 (f4 ?v_0 ?v0) (f4 ?v_0 ?v1)) f1))))))
(assert (forall ((?v0 S2)) (not (= (f4 (f5 f7 (f4 (f5 f7 f14) ?v0)) ?v0) f18))))
(assert (forall ((?v0 S2) (?v1 S2)) (= (= (f3 ?v0 ?v1) f1) (= (f3 (f4 (f5 f6 ?v0) ?v1) f18) f1))))
(assert (forall ((?v0 S2)) (let ((?v_0 (f4 f9 ?v0))) (= (f4 f9 (f4 f10 ?v0)) (f4 (f5 f7 (f4 (f5 f7 f18) ?v_0)) ?v_0)))))
(check-sat)
(exit)
